Minimize
  - 4 y_0 - 4 y_1 - 5 y_2 - 2 y_3 - 5 y_4 - 3 y_5 - 4 y_6 - 2 y_7 - 4 y_8
   - 3 y_9 - 2 y_10 - y_11 - 5 y_12 - 5 y_13 - 3 y_14 - 3 y_16 - y_17
   - 3 y_18 - 5 y_19 - 3 y_20 - 3 y_21 - 6 y_22 - 5 y_23 - y_24 - 5 y_25
   - 3 y_26 - 2 y_27 - 6 y_28 - 5 y_29 - 3 y_30 - y_31 - 6 y_32 - 7 y_33
   - 4 y_34 - 4 y_35 - 4 y_36 - 2 y_37 - 3 y_38 - 4 y_39 - 4 y_40 - 4 y_41
   - 7 y_42 - 6 y_43 - 7 y_44 - 5 y_45 - 5 y_46 - 3 y_47 - 5 y_48 - 2 y_49
   + 45 x_0_1 + 77 x_0_2 + 23 x_0_3 + 96 x_0_4 + 19 x_0_5 + 86 x_0_6
   + 82 x_0_8 + 48 x_0_9 + 54 x_0_10 + 54 x_0_11 + 76 x_0_12 + 64 x_0_13
   + 64 x_0_14 + 67 x_0_16 + 46 x_0_18 + 98 x_0_19 + 45 x_0_20 + 51 x_0_21
   + 74 x_0_22 + 10 x_0_23 + 32 x_0_25 + 41 x_0_26 + 34 x_0_27 + 81 x_0_28
   + 12 x_0_30 + 54 x_0_31 + 79 x_0_33 + 84 x_0_34 + 20 x_0_35 + 43 x_0_36
   + 42 x_0_37 + 74 x_0_38 + 20 x_0_40 + 85 x_0_41 + 85 x_0_42 + 20 x_0_45
   + 61 x_0_47 + 92 x_0_48 + 58 x_0_49 + 41 x_1_2 + 45 x_1_3 + 72 x_1_4
   + 37 x_1_7 + 76 x_1_8 + 41 x_1_11 + 20 x_1_13 + 38 x_1_14 + 42 x_1_15
   + 36 x_1_17 + 14 x_1_18 + 66 x_1_20 + 99 x_1_22 + 41 x_1_23 + 43 x_1_24
   + 71 x_1_25 + 64 x_1_26 + 55 x_1_27 + 103 x_1_28 + 16 x_1_29 + 42 x_1_30
   + 104 x_1_33 + 61 x_1_34 + 61 x_1_37 + 40 x_1_39 + 60 x_1_40 + 84 x_1_41
   + 108 x_1_42 + 61 x_1_43 + 63 x_1_45 + 63 x_1_46 + 62 x_1_49 + 65 x_2_3
   + 36 x_2_4 + 70 x_2_5 + 53 x_2_6 + 24 x_2_7 + 57 x_2_8 + 34 x_2_11
   + 33 x_2_13 + 45 x_2_15 + 14 x_2_16 + 35 x_2_17 + 32 x_2_18 + 56 x_2_19
   + 73 x_2_20 + 72 x_2_21 + 102 x_2_22 + 92 x_2_25 + 103 x_2_28
   + 32 x_2_29 + 96 x_2_32 + 107 x_2_33 + 28 x_2_34 + 87 x_2_36 + 69 x_2_37
   + 84 x_2_40 + 67 x_2_41 + 107 x_2_42 + 92 x_2_43 + 89 x_2_45 + 25 x_2_46
   + 17 x_2_47 + 50 x_2_48 + 58 x_2_49 + 78 x_3_4 + 5 x_3_5 + 60 x_3_8
   + 27 x_3_9 + 32 x_3_10 + 36 x_3_11 + 63 x_3_13 + 49 x_3_14 + 24 x_3_15
   + 53 x_3_16 + 33 x_3_17 + 40 x_3_18 + 77 x_3_19 + 56 x_3_22 + 37 x_3_24
   + 27 x_3_25 + 21 x_3_26 + 60 x_3_29 + 10 x_3_30 + 57 x_3_32 + 13 x_3_35
   + 29 x_3_36 + 21 x_3_37 + 65 x_3_39 + 19 x_3_40 + 67 x_3_42 + 32 x_3_43
   + 25 x_3_45 + 75 x_3_46 + 48 x_3_47 + 71 x_3_48 + 36 x_3_49 + 35 x_4_8
   + 75 x_4_9 + 61 x_4_10 + 42 x_4_11 + 69 x_4_13 + 35 x_4_14 + 53 x_4_15
   + 33 x_4_16 + 23 x_4_19 + 74 x_4_20 + 70 x_4_21 + 92 x_4_22 + 99 x_4_23
   + 41 x_4_24 + 100 x_4_25 + 90 x_4_28 + 85 x_4_30 + 47 x_4_31 + 84 x_4_32
   + 90 x_4_35 + 37 x_4_39 + 94 x_4_42 + 109 x_4_43 + 72 x_4_44
   + 102 x_4_45 + 41 x_4_47 + 20 x_4_48 + 52 x_4_49 + 69 x_5_6 + 48 x_5_7
   + 64 x_5_8 + 35 x_5_10 + 57 x_5_12 + 66 x_5_13 + 29 x_5_15 + 58 x_5_16
   + 37 x_5_17 + 82 x_5_19 + 26 x_5_20 + 32 x_5_21 + 28 x_5_23 + 22 x_5_26
   + 15 x_5_27 + 63 x_5_28 + 63 x_5_29 + 9 x_5_30 + 37 x_5_31 + 58 x_5_32
   + 62 x_5_33 + 9 x_5_35 + 27 x_5_36 + 60 x_5_38 + 69 x_5_39 + 15 x_5_40
   + 66 x_5_41 + 28 x_5_43 + 80 x_5_44 + 20 x_5_45 + 79 x_5_46 + 52 x_5_47
   + 75 x_5_48 + 40 x_6_7 + 7 x_6_8 + 53 x_6_9 + 39 x_6_10 + 37 x_6_11
   + 50 x_6_12 + 81 x_6_13 + 41 x_6_14 + 42 x_6_17 + 63 x_6_18 + 34 x_6_24
   + 57 x_6_26 + 57 x_6_27 + 74 x_6_30 + 69 x_6_33 + 27 x_6_34 + 68 x_6_36
   + 51 x_6_37 + 25 x_6_38 + 54 x_6_39 + 81 x_6_40 + 17 x_6_41 + 96 x_6_43
   + 86 x_6_45 + 37 x_6_46 + 41 x_7_8 + 52 x_7_9 + 68 x_7_12 + 41 x_7_13
   + 6 x_7_14 + 21 x_7_15 + 10 x_7_16 + 11 x_7_17 + 23 x_7_18 + 48 x_7_19
   + 49 x_7_20 + 78 x_7_22 + 51 x_7_26 + 44 x_7_27 + 80 x_7_28 + 48 x_7_30
   + 73 x_7_32 + 56 x_7_35 + 63 x_7_36 + 45 x_7_37 + 18 x_7_38 + 24 x_7_39
   + 62 x_7_40 + 50 x_7_41 + 73 x_7_43 + 68 x_7_45 + 9 x_7_47 + 41 x_7_48
   + 35 x_7_49 + 46 x_8_9 + 32 x_8_10 + 36 x_8_11 + 43 x_8_12 + 82 x_8_13
   + 42 x_8_14 + 40 x_8_15 + 45 x_8_16 + 40 x_8_17 + 63 x_8_18 + 20 x_8_19
   + 58 x_8_22 + 75 x_8_25 + 51 x_8_27 + 55 x_8_28 + 69 x_8_30 + 49 x_8_32
   + 69 x_8_35 + 61 x_8_36 + 45 x_8_37 + 75 x_8_40 + 11 x_8_41 + 91 x_8_43
   + 90 x_8_44 + 81 x_8_45 + 49 x_8_47 + 25 x_8_49 + 42 x_9_11 + 57 x_9_14
   + 42 x_9_17 + 59 x_9_18 + 66 x_9_19 + 3 x_9_20 + 6 x_9_21 + 30 x_9_22
   + 57 x_9_23 + 41 x_9_24 + 7 x_9_26 + 35 x_9_28 + 81 x_9_29 + 37 x_9_30
   + 30 x_9_31 + 30 x_9_32 + 35 x_9_33 + 66 x_9_34 + 29 x_9_35 + 8 x_9_37
   + 56 x_9_38 + 76 x_9_39 + 34 x_9_40 + 40 x_9_42 + 51 x_9_43 + 97 x_9_44
   + 38 x_9_45 + 76 x_9_46 + 62 x_9_48 + 23 x_9_49 + 28 x_10_12
   + 78 x_10_13 + 46 x_10_14 + 33 x_10_17 + 52 x_10_19 + 9 x_10_21
   + 37 x_10_22 + 43 x_10_25 + 19 x_10_26 + 20 x_10_27 + 39 x_10_28
   + 74 x_10_29 + 18 x_10_31 + 32 x_10_32 + 52 x_10_34 + 29 x_10_36
   + 42 x_10_38 + 65 x_10_39 + 44 x_10_40 + 32 x_10_41 + 44 x_10_42
   + 61 x_10_43 + 49 x_10_45 + 47 x_10_48 + 9 x_10_49 + 15 x_11_14
   + 19 x_11_16 + 5 x_11_17 + 27 x_11_18 + 47 x_11_19 + 40 x_11_20
   + 39 x_11_21 + 69 x_11_22 + 3 x_11_24 + 36 x_11_27 + 71 x_11_28
   + 43 x_11_30 + 49 x_11_35 + 54 x_11_36 + 35 x_11_37 + 20 x_11_38
   + 34 x_11_39 + 55 x_11_40 + 44 x_11_41 + 75 x_11_42 + 67 x_11_43
   + 59 x_11_44 + 38 x_11_46 + 25 x_11_49 + 106 x_12_13 + 72 x_12_14
   + 52 x_12_15 + 60 x_12_17 + 82 x_12_18 + 61 x_12_19 + 31 x_12_20
   + 26 x_12_21 + 16 x_12_22 + 56 x_12_24 + 53 x_12_25 + 35 x_12_26
   + 102 x_12_29 + 65 x_12_30 + 44 x_12_31 + 6 x_12_32 + 19 x_12_33
   + 72 x_12_34 + 35 x_12_37 + 64 x_12_38 + 60 x_12_40 + 17 x_12_42
   + 78 x_12_43 + 117 x_12_44 + 64 x_12_45 + 59 x_12_48 + 40 x_13_14
   + 54 x_13_15 + 39 x_13_16 + 25 x_13_18 + 60 x_13_23 + 52 x_13_24
   + 90 x_13_25 + 81 x_13_26 + 72 x_13_27 + 117 x_13_28 + 4 x_13_29
   + 61 x_13_30 + 63 x_13_31 + 111 x_13_32 + 119 x_13_33 + 60 x_13_34
   + 74 x_13_35 + 76 x_13_37 + 56 x_13_38 + 79 x_13_40 + 122 x_13_42
   + 82 x_13_45 + 33 x_13_47 + 74 x_13_49 + 27 x_14_15 + 4 x_14_16
   + 17 x_14_17 + 47 x_14_19 + 55 x_14_20 + 54 x_14_21 + 83 x_14_22
   + 17 x_14_24 + 50 x_14_27 + 85 x_14_28 + 29 x_14_31 + 88 x_14_33
   + 69 x_14_36 + 51 x_14_37 + 16 x_14_38 + 19 x_14_39 + 68 x_14_40
   + 89 x_14_42 + 78 x_14_43 + 48 x_14_44 + 74 x_14_45 + 28 x_14_46
   + 39 x_14_49 + 11 x_15_17 + 55 x_15_19 + 29 x_15_20 + 60 x_15_22
   + 49 x_15_23 + 23 x_15_27 + 63 x_15_28 + 51 x_15_29 + 32 x_15_30
   + 65 x_15_33 + 42 x_15_34 + 42 x_15_36 + 24 x_15_37 + 45 x_15_39
   + 43 x_15_40 + 56 x_15_43 + 51 x_15_46 + 28 x_15_47 + 21 x_15_49
   + 21 x_16_17 + 27 x_16_18 + 59 x_16_20 + 58 x_16_21 + 87 x_16_22
   + 79 x_16_25 + 55 x_16_27 + 89 x_16_28 + 36 x_16_29 + 58 x_16_30
   + 33 x_16_31 + 92 x_16_33 + 22 x_16_34 + 66 x_16_35 + 17 x_16_38
   + 72 x_16_40 + 93 x_16_42 + 82 x_16_43 + 78 x_16_45 + 25 x_16_46
   + 41 x_16_48 + 43 x_16_49 + 23 x_17_18 + 52 x_17_19 + 70 x_17_22
   + 53 x_17_23 + 7 x_17_24 + 58 x_17_25 + 34 x_17_27 + 72 x_17_28
   + 42 x_17_29 + 38 x_17_30 + 17 x_17_31 + 65 x_17_32 + 35 x_17_34
   + 46 x_17_35 + 35 x_17_37 + 24 x_17_38 + 52 x_17_40 + 48 x_17_41
   + 63 x_17_43 + 57 x_17_44 + 42 x_17_46 + 45 x_17_48 + 28 x_17_49
   + 71 x_18_19 + 89 x_18_22 + 45 x_18_23 + 30 x_18_24 + 66 x_18_25
   + 56 x_18_26 + 47 x_18_27 + 92 x_18_28 + 39 x_18_30 + 39 x_18_31
   + 86 x_18_32 + 94 x_18_33 + 66 x_18_36 + 51 x_18_37 + 41 x_18_38
   + 31 x_18_39 + 71 x_18_41 + 62 x_18_43 + 38 x_18_44 + 61 x_18_45
   + 51 x_18_46 + 64 x_18_48 + 50 x_18_49 + 77 x_19_22 + 104 x_19_23
   + 45 x_19_24 + 95 x_19_25 + 71 x_19_26 + 70 x_19_27 + 74 x_19_28
   + 84 x_19_29 + 44 x_19_31 + 80 x_19_33 + 27 x_19_34 + 88 x_19_35
   + 81 x_19_36 + 65 x_19_37 + 31 x_19_38 + 57 x_19_39 + 94 x_19_40
   + 27 x_19_41 + 76 x_19_42 + 109 x_19_43 + 91 x_19_44 + 100 x_19_45
   + 34 x_19_46 + 54 x_19_47 + 7 x_19_48 + 39 x_20_24 + 28 x_20_25
   + 5 x_20_26 + 11 x_20_27 + 39 x_20_28 + 77 x_20_29 + 34 x_20_30
   + 33 x_20_32 + 65 x_20_34 + 27 x_20_35 + 15 x_20_36 + 5 x_20_37
   + 54 x_20_38 + 73 x_20_39 + 31 x_20_40 + 45 x_20_41 + 43 x_20_42
   + 93 x_20_44 + 36 x_20_45 + 75 x_20_46 + 57 x_20_47 + 62 x_20_48
   + 23 x_20_49 + 60 x_21_23 + 35 x_21_25 + 11 x_21_26 + 17 x_21_27
   + 79 x_21_29 + 40 x_21_30 + 26 x_21_31 + 29 x_21_32 + 61 x_21_34
   + 33 x_21_35 + 20 x_21_36 + 9 x_21_37 + 72 x_21_39 + 38 x_21_40
   + 39 x_21_41 + 40 x_21_42 + 56 x_21_43 + 95 x_21_44 + 43 x_21_45
   + 72 x_21_46 + 57 x_21_47 + 18 x_21_49 + 67 x_22_24 + 46 x_22_25
   + 35 x_22_26 + 44 x_22_27 + 8 x_22_28 + 10 x_22_32 + 5 x_22_33
   + 86 x_22_34 + 54 x_22_35 + 31 x_22_36 + 38 x_22_37 + 77 x_22_38
   + 12 x_22_42 + 73 x_22_43 + 59 x_22_45 + 97 x_22_46 + 87 x_22_47
   + 44 x_22_49 + 60 x_23_24 + 42 x_23_25 + 50 x_23_26 + 91 x_23_28
   + 57 x_23_29 + 20 x_23_30 + 86 x_23_32 + 89 x_23_33 + 88 x_23_34
   + 29 x_23_35 + 78 x_23_38 + 76 x_23_39 + 92 x_23_41 + 95 x_23_42
   + 29 x_23_45 + 94 x_23_46 + 62 x_23_47 + 97 x_23_48 + 65 x_23_49
   + 60 x_24_25 + 41 x_24_26 + 35 x_24_27 + 44 x_24_30 + 12 x_24_31
   + 61 x_24_32 + 72 x_24_33 + 30 x_24_34 + 49 x_24_35 + 53 x_24_36
   + 34 x_24_37 + 19 x_24_38 + 35 x_24_39 + 56 x_24_40 + 41 x_24_41
   + 68 x_24_43 + 62 x_24_44 + 61 x_24_45 + 38 x_24_46 + 20 x_24_47
   + 38 x_24_48 + 23 x_24_49 + 24 x_25_26 + 26 x_25_27 + 54 x_25_28
   + 29 x_25_30 + 51 x_25_32 + 50 x_25_33 + 30 x_25_37 + 78 x_25_38
   + 91 x_25_39 + 13 x_25_40 + 74 x_25_41 + 58 x_25_42 + 103 x_25_44
   + 13 x_25_45 + 99 x_25_46 + 75 x_25_47 + 89 x_25_48 + 50 x_25_49
   + 9 x_26_27 + 41 x_26_28 + 77 x_26_29 + 31 x_26_30 + 31 x_26_31
   + 68 x_26_34 + 22 x_26_35 + 12 x_26_36 + 57 x_26_38 + 75 x_26_39
   + 27 x_26_40 + 50 x_26_41 + 46 x_26_42 + 44 x_26_43 + 93 x_26_44
   + 32 x_26_45 + 78 x_26_46 + 58 x_26_47 + 65 x_26_48 + 26 x_26_49
   + 23 x_27_30 + 44 x_27_32 + 50 x_27_33 + 64 x_27_34 + 18 x_27_35
   + 20 x_27_36 + 8 x_27_37 + 53 x_27_38 + 52 x_27_41 + 54 x_27_42
   + 41 x_27_43 + 85 x_27_44 + 30 x_27_45 + 73 x_27_46 + 51 x_27_47
   + 64 x_27_48 + 114 x_28_29 + 72 x_28_30 + 56 x_28_31 + 7 x_28_32
   + 7 x_28_33 + 85 x_28_34 + 38 x_28_36 + 77 x_28_38 + 103 x_28_39
   + 64 x_28_40 + 47 x_28_41 + 5 x_28_42 + 80 x_28_43 + 129 x_28_44
   + 67 x_28_45 + 96 x_28_46 + 72 x_28_48 + 45 x_28_49 + 57 x_29_30
   + 59 x_29_31 + 107 x_29_32 + 115 x_29_33 + 71 x_29_35 + 87 x_29_36
   + 54 x_29_38 + 31 x_29_39 + 75 x_29_40 + 77 x_29_43 + 79 x_29_45
   + 57 x_29_46 + 30 x_29_47 + 77 x_29_48 + 42 x_30_31 + 67 x_30_32
   + 71 x_30_33 + 73 x_30_34 + 14 x_30_35 + 36 x_30_36 + 31 x_30_37
   + 62 x_30_38 + 68 x_30_39 + 72 x_30_41 + 76 x_30_42 + 25 x_30_43
   + 22 x_30_45 + 51 x_30_47 + 80 x_30_48 + 46 x_30_49 + 49 x_31_32
   + 60 x_31_33 + 44 x_31_35 + 25 x_31_37 + 47 x_31_39 + 50 x_31_40
   + 65 x_31_43 + 73 x_31_44 + 47 x_31_46 + 38 x_31_48 + 11 x_31_49
   + 57 x_32_35 + 70 x_32_38 + 96 x_32_39 + 41 x_32_41 + 11 x_32_42
   + 122 x_32_44 + 63 x_32_45 + 82 x_32_47 + 66 x_32_48 + 38 x_32_49
   + 90 x_33_34 + 36 x_33_36 + 61 x_33_40 + 8 x_33_42 + 77 x_33_43
   + 63 x_33_45 + 92 x_33_47 + 78 x_33_48 + 49 x_33_49 + 79 x_34_35
   + 80 x_34_36 + 61 x_34_37 + 85 x_34_40 + 98 x_34_43 + 11 x_34_46
   + 29 x_34_47 + 22 x_34_48 + 44 x_34_49 + 29 x_35_23 + 24 x_35_36
   + 25 x_35_37 + 6 x_35_40 + 66 x_35_42 + 88 x_35_44 + 12 x_35_45
   + 88 x_35_46 + 61 x_35_47 + 82 x_35_48 + 44 x_35_49 + 87 x_36_39
   + 58 x_36_41 + 42 x_36_43 + 104 x_36_44 + 29 x_36_45 + 90 x_36_46
   + 70 x_36_47 + 37 x_36_49 + 51 x_37_38 + 69 x_37_39 + 45 x_37_41
   + 48 x_37_42 + 48 x_37_43 + 89 x_37_44 + 71 x_37_46 + 52 x_37_47
   + 20 x_37_49 + 74 x_38_40 + 39 x_38_41 + 63 x_38_44 + 80 x_38_45
   + 21 x_38_46 + 23 x_38_47 + 24 x_38_48 + 34 x_38_49 + 84 x_39_40
   + 89 x_39_45 + 17 x_39_47 + 50 x_39_48 + 58 x_39_49 + 76 x_40_41
   + 68 x_40_42 + 18 x_40_43 + 6 x_40_45 + 67 x_40_47 + 88 x_40_48
   + 50 x_40_49 + 81 x_41_45 + 53 x_41_46 + 26 x_41_48 + 84 x_42_43
   + 133 x_42_44 + 100 x_42_46 + 93 x_42_47 + 75 x_42_48 + 50 x_42_49
   + 93 x_43_44 + 14 x_43_45 + 105 x_43_46 + 76 x_43_47 + 103 x_43_48
   + 85 x_44_48 + 84 x_44_49 + 72 x_45_47 + 94 x_45_48 + 56 x_45_49
   + 30 x_46_48 + 54 x_46_49 + 47 x_47_48 + 44 x_47_49 + 189 Constant
Subject To
 c_0: y_13 = 1
 c_1_0: y_0 + y_23 >= 1
 c_1_1: y_1 >= 1
 c_1_2: y_2 + y_39 >= 1
 c_1_3: y_3 + y_5 + y_30 >= 1
 c_1_4: y_4 >= 1
 c_1_5: y_3 + y_5 + y_30 + y_35 >= 1
 c_1_6: y_6 + y_8 + y_48 >= 1
 c_1_7: y_7 + y_11 + y_14 + y_16 + y_47 >= 1
 c_1_8: y_6 + y_8 >= 1
 c_1_9: y_9 + y_20 + y_21 + y_26 + y_37 >= 1
 c_1_10: y_10 + y_21 + y_49 >= 1
 c_1_11: y_7 + y_11 + y_17 + y_24 >= 1
 c_1_12: y_12 + y_32 >= 1
 c_1_13: y_13 + y_29 >= 1
 c_1_14: y_7 + y_14 + y_16 + y_47 >= 1
 c_1_15: y_15 >= 1
 c_1_16: y_7 + y_14 + y_16 + y_47 >= 1
 c_1_17: y_11 + y_17 + y_24 >= 1
 c_1_18: y_18 >= 1
 c_1_19: y_19 + y_48 >= 1
 c_1_20: y_9 + y_20 + y_21 + y_26 + y_37 >= 1
 c_1_21: y_9 + y_10 + y_20 + y_21 + y_37 >= 1
 c_1_22: y_22 + y_28 + y_32 + y_33 >= 1
 c_1_23: y_0 + y_23 >= 1
 c_1_24: y_11 + y_17 + y_24 >= 1
 c_1_25: y_25 >= 1
 c_1_26: y_9 + y_20 + y_26 + y_27 + y_37 >= 1
 c_1_27: y_26 + y_27 + y_37 >= 1
 c_1_28: y_22 + y_28 + y_32 + y_33 + y_42 >= 1
 c_1_29: y_13 + y_29 >= 1
 c_1_30: y_3 + y_5 + y_30 >= 1
 c_1_31: y_31 >= 1
 c_1_32: y_12 + y_22 + y_28 + y_32 >= 1
 c_1_33: y_22 + y_28 + y_33 + y_42 >= 1
 c_1_34: y_34 >= 1
 c_1_35: y_5 + y_35 + y_40 >= 1
 c_1_36: y_36 >= 1
 c_1_37: y_9 + y_20 + y_21 + y_26 + y_27 + y_37 >= 1
 c_1_38: y_38 >= 1
 c_1_39: y_2 + y_39 >= 1
 c_1_40: y_35 + y_40 + y_45 >= 1
 c_1_41: y_41 >= 1
 c_1_42: y_28 + y_33 + y_42 >= 1
 c_1_43: y_43 >= 1
 c_1_44: y_44 >= 1
 c_1_45: y_40 + y_45 >= 1
 c_1_46: y_46 >= 1
 c_1_47: y_7 + y_14 + y_16 + y_47 >= 1
 c_1_48: y_6 + y_19 + y_48 >= 1
 c_1_49: y_10 + y_49 >= 1
 c_2_0: - 2 y_0 + x_0_1 + x_0_2 + x_0_3 + x_0_4 + x_0_5 + x_0_6 + x_0_8
   + x_0_9 + x_0_10 + x_0_11 + x_0_12 + x_0_13 + x_0_14 + x_0_16 + x_0_18
   + x_0_19 + x_0_20 + x_0_21 + x_0_22 + x_0_23 + x_0_25 + x_0_26 + x_0_27
   + x_0_28 + x_0_30 + x_0_31 + x_0_33 + x_0_34 + x_0_35 + x_0_36 + x_0_37
   + x_0_38 + x_0_40 + x_0_41 + x_0_42 + x_0_45 + x_0_47 + x_0_48 + x_0_49
   = 0
 c_2_1: - 2 y_1 + x_0_1 + x_1_2 + x_1_3 + x_1_4 + x_1_7 + x_1_8 + x_1_11
   + x_1_13 + x_1_14 + x_1_15 + x_1_17 + x_1_18 + x_1_20 + x_1_22 + x_1_23
   + x_1_24 + x_1_25 + x_1_26 + x_1_27 + x_1_28 + x_1_29 + x_1_30 + x_1_33
   + x_1_34 + x_1_37 + x_1_39 + x_1_40 + x_1_41 + x_1_42 + x_1_43 + x_1_45
   + x_1_46 + x_1_49 = 0
 c_2_2: - 2 y_2 + x_0_2 + x_1_2 + x_2_3 + x_2_4 + x_2_5 + x_2_6 + x_2_7
   + x_2_8 + x_2_11 + x_2_13 + x_2_15 + x_2_16 + x_2_17 + x_2_18 + x_2_19
   + x_2_20 + x_2_21 + x_2_22 + x_2_25 + x_2_28 + x_2_29 + x_2_32 + x_2_33
   + x_2_34 + x_2_36 + x_2_37 + x_2_40 + x_2_41 + x_2_42 + x_2_43 + x_2_45
   + x_2_46 + x_2_47 + x_2_48 + x_2_49 = 0
 c_2_3: - 2 y_3 + x_0_3 + x_1_3 + x_2_3 + x_3_4 + x_3_5 + x_3_8 + x_3_9
   + x_3_10 + x_3_11 + x_3_13 + x_3_14 + x_3_15 + x_3_16 + x_3_17 + x_3_18
   + x_3_19 + x_3_22 + x_3_24 + x_3_25 + x_3_26 + x_3_29 + x_3_30 + x_3_32
   + x_3_35 + x_3_36 + x_3_37 + x_3_39 + x_3_40 + x_3_42 + x_3_43 + x_3_45
   + x_3_46 + x_3_47 + x_3_48 + x_3_49 = 0
 c_2_4: - 2 y_4 + x_0_4 + x_1_4 + x_2_4 + x_3_4 + x_4_8 + x_4_9 + x_4_10
   + x_4_11 + x_4_13 + x_4_14 + x_4_15 + x_4_16 + x_4_19 + x_4_20 + x_4_21
   + x_4_22 + x_4_23 + x_4_24 + x_4_25 + x_4_28 + x_4_30 + x_4_31 + x_4_32
   + x_4_35 + x_4_39 + x_4_42 + x_4_43 + x_4_44 + x_4_45 + x_4_47 + x_4_48
   + x_4_49 = 0
 c_2_5: - 2 y_5 + x_0_5 + x_2_5 + x_3_5 + x_5_6 + x_5_7 + x_5_8 + x_5_10
   + x_5_12 + x_5_13 + x_5_15 + x_5_16 + x_5_17 + x_5_19 + x_5_20 + x_5_21
   + x_5_23 + x_5_26 + x_5_27 + x_5_28 + x_5_29 + x_5_30 + x_5_31 + x_5_32
   + x_5_33 + x_5_35 + x_5_36 + x_5_38 + x_5_39 + x_5_40 + x_5_41 + x_5_43
   + x_5_44 + x_5_45 + x_5_46 + x_5_47 + x_5_48 = 0
 c_2_6: - 2 y_6 + x_0_6 + x_2_6 + x_5_6 + x_6_7 + x_6_8 + x_6_9 + x_6_10
   + x_6_11 + x_6_12 + x_6_13 + x_6_14 + x_6_17 + x_6_18 + x_6_24 + x_6_26
   + x_6_27 + x_6_30 + x_6_33 + x_6_34 + x_6_36 + x_6_37 + x_6_38 + x_6_39
   + x_6_40 + x_6_41 + x_6_43 + x_6_45 + x_6_46 = 0
 c_2_7: - 2 y_7 + x_1_7 + x_2_7 + x_5_7 + x_6_7 + x_7_8 + x_7_9 + x_7_12
   + x_7_13 + x_7_14 + x_7_15 + x_7_16 + x_7_17 + x_7_18 + x_7_19 + x_7_20
   + x_7_22 + x_7_26 + x_7_27 + x_7_28 + x_7_30 + x_7_32 + x_7_35 + x_7_36
   + x_7_37 + x_7_38 + x_7_39 + x_7_40 + x_7_41 + x_7_43 + x_7_45 + x_7_47
   + x_7_48 + x_7_49 = 0
 c_2_8: - 2 y_8 + x_0_8 + x_1_8 + x_2_8 + x_3_8 + x_4_8 + x_5_8 + x_6_8
   + x_7_8 + x_8_9 + x_8_10 + x_8_11 + x_8_12 + x_8_13 + x_8_14 + x_8_15
   + x_8_16 + x_8_17 + x_8_18 + x_8_19 + x_8_22 + x_8_25 + x_8_27 + x_8_28
   + x_8_30 + x_8_32 + x_8_35 + x_8_36 + x_8_37 + x_8_40 + x_8_41 + x_8_43
   + x_8_44 + x_8_45 + x_8_47 + x_8_49 = 0
 c_2_9: - 2 y_9 + x_0_9 + x_3_9 + x_4_9 + x_6_9 + x_7_9 + x_8_9 + x_9_11
   + x_9_14 + x_9_17 + x_9_18 + x_9_19 + x_9_20 + x_9_21 + x_9_22 + x_9_23
   + x_9_24 + x_9_26 + x_9_28 + x_9_29 + x_9_30 + x_9_31 + x_9_32 + x_9_33
   + x_9_34 + x_9_35 + x_9_37 + x_9_38 + x_9_39 + x_9_40 + x_9_42 + x_9_43
   + x_9_44 + x_9_45 + x_9_46 + x_9_48 + x_9_49 = 0
 c_2_10: - 2 y_10 + x_0_10 + x_3_10 + x_4_10 + x_5_10 + x_6_10 + x_8_10
   + x_10_12 + x_10_13 + x_10_14 + x_10_17 + x_10_19 + x_10_21 + x_10_22
   + x_10_25 + x_10_26 + x_10_27 + x_10_28 + x_10_29 + x_10_31 + x_10_32
   + x_10_34 + x_10_36 + x_10_38 + x_10_39 + x_10_40 + x_10_41 + x_10_42
   + x_10_43 + x_10_45 + x_10_48 + x_10_49 = 0
 c_2_11: - 2 y_11 + x_0_11 + x_1_11 + x_2_11 + x_3_11 + x_4_11 + x_6_11
   + x_8_11 + x_9_11 + x_11_14 + x_11_16 + x_11_17 + x_11_18 + x_11_19
   + x_11_20 + x_11_21 + x_11_22 + x_11_24 + x_11_27 + x_11_28 + x_11_30
   + x_11_35 + x_11_36 + x_11_37 + x_11_38 + x_11_39 + x_11_40 + x_11_41
   + x_11_42 + x_11_43 + x_11_44 + x_11_46 + x_11_49 = 0
 c_2_12: - 2 y_12 + x_0_12 + x_5_12 + x_6_12 + x_7_12 + x_8_12 + x_10_12
   + x_12_13 + x_12_14 + x_12_15 + x_12_17 + x_12_18 + x_12_19 + x_12_20
   + x_12_21 + x_12_22 + x_12_24 + x_12_25 + x_12_26 + x_12_29 + x_12_30
   + x_12_31 + x_12_32 + x_12_33 + x_12_34 + x_12_37 + x_12_38 + x_12_40
   + x_12_42 + x_12_43 + x_12_44 + x_12_45 + x_12_48 = 0
 c_2_13: - 2 y_13 + x_0_13 + x_1_13 + x_2_13 + x_3_13 + x_4_13 + x_5_13
   + x_6_13 + x_7_13 + x_8_13 + x_10_13 + x_12_13 + x_13_14 + x_13_15
   + x_13_16 + x_13_18 + x_13_23 + x_13_24 + x_13_25 + x_13_26 + x_13_27
   + x_13_28 + x_13_29 + x_13_30 + x_13_31 + x_13_32 + x_13_33 + x_13_34
   + x_13_35 + x_13_37 + x_13_38 + x_13_40 + x_13_42 + x_13_45 + x_13_47
   + x_13_49 = 0
 c_2_14: - 2 y_14 + x_0_14 + x_1_14 + x_3_14 + x_4_14 + x_6_14 + x_7_14
   + x_8_14 + x_9_14 + x_10_14 + x_11_14 + x_12_14 + x_13_14 + x_14_15
   + x_14_16 + x_14_17 + x_14_19 + x_14_20 + x_14_21 + x_14_22 + x_14_24
   + x_14_27 + x_14_28 + x_14_31 + x_14_33 + x_14_36 + x_14_37 + x_14_38
   + x_14_39 + x_14_40 + x_14_42 + x_14_43 + x_14_44 + x_14_45 + x_14_46
   + x_14_49 = 0
 c_2_15: - 2 y_15 + x_1_15 + x_2_15 + x_3_15 + x_4_15 + x_5_15 + x_7_15
   + x_8_15 + x_12_15 + x_13_15 + x_14_15 + x_15_17 + x_15_19 + x_15_20
   + x_15_22 + x_15_23 + x_15_27 + x_15_28 + x_15_29 + x_15_30 + x_15_33
   + x_15_34 + x_15_36 + x_15_37 + x_15_39 + x_15_40 + x_15_43 + x_15_46
   + x_15_47 + x_15_49 = 0
 c_2_16: - 2 y_16 + x_0_16 + x_2_16 + x_3_16 + x_4_16 + x_5_16 + x_7_16
   + x_8_16 + x_11_16 + x_13_16 + x_14_16 + x_16_17 + x_16_18 + x_16_20
   + x_16_21 + x_16_22 + x_16_25 + x_16_27 + x_16_28 + x_16_29 + x_16_30
   + x_16_31 + x_16_33 + x_16_34 + x_16_35 + x_16_38 + x_16_40 + x_16_42
   + x_16_43 + x_16_45 + x_16_46 + x_16_48 + x_16_49 = 0
 c_2_17: - 2 y_17 + x_1_17 + x_2_17 + x_3_17 + x_5_17 + x_6_17 + x_7_17
   + x_8_17 + x_9_17 + x_10_17 + x_11_17 + x_12_17 + x_14_17 + x_15_17
   + x_16_17 + x_17_18 + x_17_19 + x_17_22 + x_17_23 + x_17_24 + x_17_25
   + x_17_27 + x_17_28 + x_17_29 + x_17_30 + x_17_31 + x_17_32 + x_17_34
   + x_17_35 + x_17_37 + x_17_38 + x_17_40 + x_17_41 + x_17_43 + x_17_44
   + x_17_46 + x_17_48 + x_17_49 = 0
 c_2_18: - 2 y_18 + x_0_18 + x_1_18 + x_2_18 + x_3_18 + x_6_18 + x_7_18
   + x_8_18 + x_9_18 + x_11_18 + x_12_18 + x_13_18 + x_16_18 + x_17_18
   + x_18_19 + x_18_22 + x_18_23 + x_18_24 + x_18_25 + x_18_26 + x_18_27
   + x_18_28 + x_18_30 + x_18_31 + x_18_32 + x_18_33 + x_18_36 + x_18_37
   + x_18_38 + x_18_39 + x_18_41 + x_18_43 + x_18_44 + x_18_45 + x_18_46
   + x_18_48 + x_18_49 = 0
 c_2_19: - 2 y_19 + x_0_19 + x_2_19 + x_3_19 + x_4_19 + x_5_19 + x_7_19
   + x_8_19 + x_9_19 + x_10_19 + x_11_19 + x_12_19 + x_14_19 + x_15_19
   + x_17_19 + x_18_19 + x_19_22 + x_19_23 + x_19_24 + x_19_25 + x_19_26
   + x_19_27 + x_19_28 + x_19_29 + x_19_31 + x_19_33 + x_19_34 + x_19_35
   + x_19_36 + x_19_37 + x_19_38 + x_19_39 + x_19_40 + x_19_41 + x_19_42
   + x_19_43 + x_19_44 + x_19_45 + x_19_46 + x_19_47 + x_19_48 = 0
 c_2_20: - 2 y_20 + x_0_20 + x_1_20 + x_2_20 + x_4_20 + x_5_20 + x_7_20
   + x_9_20 + x_11_20 + x_12_20 + x_14_20 + x_15_20 + x_16_20 + x_20_24
   + x_20_25 + x_20_26 + x_20_27 + x_20_28 + x_20_29 + x_20_30 + x_20_32
   + x_20_34 + x_20_35 + x_20_36 + x_20_37 + x_20_38 + x_20_39 + x_20_40
   + x_20_41 + x_20_42 + x_20_44 + x_20_45 + x_20_46 + x_20_47 + x_20_48
   + x_20_49 = 0
 c_2_21: - 2 y_21 + x_0_21 + x_2_21 + x_4_21 + x_5_21 + x_9_21 + x_10_21
   + x_11_21 + x_12_21 + x_14_21 + x_16_21 + x_21_23 + x_21_25 + x_21_26
   + x_21_27 + x_21_29 + x_21_30 + x_21_31 + x_21_32 + x_21_34 + x_21_35
   + x_21_36 + x_21_37 + x_21_39 + x_21_40 + x_21_41 + x_21_42 + x_21_43
   + x_21_44 + x_21_45 + x_21_46 + x_21_47 + x_21_49 = 0
 c_2_22: - 2 y_22 + x_0_22 + x_1_22 + x_2_22 + x_3_22 + x_4_22 + x_7_22
   + x_8_22 + x_9_22 + x_10_22 + x_11_22 + x_12_22 + x_14_22 + x_15_22
   + x_16_22 + x_17_22 + x_18_22 + x_19_22 + x_22_24 + x_22_25 + x_22_26
   + x_22_27 + x_22_28 + x_22_32 + x_22_33 + x_22_34 + x_22_35 + x_22_36
   + x_22_37 + x_22_38 + x_22_42 + x_22_43 + x_22_45 + x_22_46 + x_22_47
   + x_22_49 = 0
 c_2_23: - 2 y_23 + x_0_23 + x_1_23 + x_4_23 + x_5_23 + x_9_23 + x_13_23
   + x_15_23 + x_17_23 + x_18_23 + x_19_23 + x_21_23 + x_23_24 + x_23_25
   + x_23_26 + x_23_28 + x_23_29 + x_23_30 + x_23_32 + x_23_33 + x_23_34
   + x_23_38 + x_23_39 + x_23_41 + x_23_42 + x_23_45 + x_23_46 + x_23_47
   + x_23_48 + x_23_49 + 2 x_35_23 = 0
 c_2_24: - 2 y_24 + x_1_24 + x_3_24 + x_4_24 + x_6_24 + x_9_24 + x_11_24
   + x_12_24 + x_13_24 + x_14_24 + x_17_24 + x_18_24 + x_19_24 + x_20_24
   + x_22_24 + x_23_24 + x_24_25 + x_24_26 + x_24_27 + x_24_30 + x_24_31
   + x_24_32 + x_24_33 + x_24_34 + x_24_35 + x_24_36 + x_24_37 + x_24_38
   + x_24_39 + x_24_40 + x_24_41 + x_24_43 + x_24_44 + x_24_45 + x_24_46
   + x_24_47 + x_24_48 + x_24_49 = 0
 c_2_25: - 2 y_25 + x_0_25 + x_1_25 + x_2_25 + x_3_25 + x_4_25 + x_8_25
   + x_10_25 + x_12_25 + x_13_25 + x_16_25 + x_17_25 + x_18_25 + x_19_25
   + x_20_25 + x_21_25 + x_22_25 + x_23_25 + x_24_25 + x_25_26 + x_25_27
   + x_25_28 + x_25_30 + x_25_32 + x_25_33 + x_25_37 + x_25_38 + x_25_39
   + x_25_40 + x_25_41 + x_25_42 + x_25_44 + x_25_45 + x_25_46 + x_25_47
   + x_25_48 + x_25_49 = 0
 c_2_26: - 2 y_26 + x_0_26 + x_1_26 + x_3_26 + x_5_26 + x_6_26 + x_7_26
   + x_9_26 + x_10_26 + x_12_26 + x_13_26 + x_18_26 + x_19_26 + x_20_26
   + x_21_26 + x_22_26 + x_23_26 + x_24_26 + x_25_26 + x_26_27 + x_26_28
   + x_26_29 + x_26_30 + x_26_31 + x_26_34 + x_26_35 + x_26_36 + x_26_38
   + x_26_39 + x_26_40 + x_26_41 + x_26_42 + x_26_43 + x_26_44 + x_26_45
   + x_26_46 + x_26_47 + x_26_48 + x_26_49 = 0
 c_2_27: - 2 y_27 + x_0_27 + x_1_27 + x_5_27 + x_6_27 + x_7_27 + x_8_27
   + x_10_27 + x_11_27 + x_13_27 + x_14_27 + x_15_27 + x_16_27 + x_17_27
   + x_18_27 + x_19_27 + x_20_27 + x_21_27 + x_22_27 + x_24_27 + x_25_27
   + x_26_27 + x_27_30 + x_27_32 + x_27_33 + x_27_34 + x_27_35 + x_27_36
   + x_27_37 + x_27_38 + x_27_41 + x_27_42 + x_27_43 + x_27_44 + x_27_45
   + x_27_46 + x_27_47 + x_27_48 = 0
 c_2_28: - 2 y_28 + x_0_28 + x_1_28 + x_2_28 + x_4_28 + x_5_28 + x_7_28
   + x_8_28 + x_9_28 + x_10_28 + x_11_28 + x_13_28 + x_14_28 + x_15_28
   + x_16_28 + x_17_28 + x_18_28 + x_19_28 + x_20_28 + x_22_28 + x_23_28
   + x_25_28 + x_26_28 + x_28_29 + x_28_30 + x_28_31 + x_28_32 + x_28_33
   + x_28_34 + x_28_36 + x_28_38 + x_28_39 + x_28_40 + x_28_41 + x_28_42
   + x_28_43 + x_28_44 + x_28_45 + x_28_46 + x_28_48 + x_28_49 = 0
 c_2_29: - 2 y_29 + x_1_29 + x_2_29 + x_3_29 + x_5_29 + x_9_29 + x_10_29
   + x_12_29 + x_13_29 + x_15_29 + x_16_29 + x_17_29 + x_19_29 + x_20_29
   + x_21_29 + x_23_29 + x_26_29 + x_28_29 + x_29_30 + x_29_31 + x_29_32
   + x_29_33 + x_29_35 + x_29_36 + x_29_38 + x_29_39 + x_29_40 + x_29_43
   + x_29_45 + x_29_46 + x_29_47 + x_29_48 = 0
 c_2_30: - 2 y_30 + x_0_30 + x_1_30 + x_3_30 + x_4_30 + x_5_30 + x_6_30
   + x_7_30 + x_8_30 + x_9_30 + x_11_30 + x_12_30 + x_13_30 + x_15_30
   + x_16_30 + x_17_30 + x_18_30 + x_20_30 + x_21_30 + x_23_30 + x_24_30
   + x_25_30 + x_26_30 + x_27_30 + x_28_30 + x_29_30 + x_30_31 + x_30_32
   + x_30_33 + x_30_34 + x_30_35 + x_30_36 + x_30_37 + x_30_38 + x_30_39
   + x_30_41 + x_30_42 + x_30_43 + x_30_45 + x_30_47 + x_30_48 + x_30_49
   = 0
 c_2_31: - 2 y_31 + x_0_31 + x_4_31 + x_5_31 + x_9_31 + x_10_31 + x_12_31
   + x_13_31 + x_14_31 + x_16_31 + x_17_31 + x_18_31 + x_19_31 + x_21_31
   + x_24_31 + x_26_31 + x_28_31 + x_29_31 + x_30_31 + x_31_32 + x_31_33
   + x_31_35 + x_31_37 + x_31_39 + x_31_40 + x_31_43 + x_31_44 + x_31_46
   + x_31_48 + x_31_49 = 0
 c_2_32: - 2 y_32 + x_2_32 + x_3_32 + x_4_32 + x_5_32 + x_7_32 + x_8_32
   + x_9_32 + x_10_32 + x_12_32 + x_13_32 + x_17_32 + x_18_32 + x_20_32
   + x_21_32 + x_22_32 + x_23_32 + x_24_32 + x_25_32 + x_27_32 + x_28_32
   + x_29_32 + x_30_32 + x_31_32 + x_32_35 + x_32_38 + x_32_39 + x_32_41
   + x_32_42 + x_32_44 + x_32_45 + x_32_47 + x_32_48 + x_32_49 = 0
 c_2_33: - 2 y_33 + x_0_33 + x_1_33 + x_2_33 + x_5_33 + x_6_33 + x_9_33
   + x_12_33 + x_13_33 + x_14_33 + x_15_33 + x_16_33 + x_18_33 + x_19_33
   + x_22_33 + x_23_33 + x_24_33 + x_25_33 + x_27_33 + x_28_33 + x_29_33
   + x_30_33 + x_31_33 + x_33_34 + x_33_36 + x_33_40 + x_33_42 + x_33_43
   + x_33_45 + x_33_47 + x_33_48 + x_33_49 = 0
 c_2_34: - 2 y_34 + x_0_34 + x_1_34 + x_2_34 + x_6_34 + x_9_34 + x_10_34
   + x_12_34 + x_13_34 + x_15_34 + x_16_34 + x_17_34 + x_19_34 + x_20_34
   + x_21_34 + x_22_34 + x_23_34 + x_24_34 + x_26_34 + x_27_34 + x_28_34
   + x_30_34 + x_33_34 + x_34_35 + x_34_36 + x_34_37 + x_34_40 + x_34_43
   + x_34_46 + x_34_47 + x_34_48 + x_34_49 = 0
 c_2_35: - 2 y_35 + x_0_35 + x_3_35 + x_4_35 + x_5_35 + x_7_35 + x_8_35
   + x_9_35 + x_11_35 + x_13_35 + x_16_35 + x_17_35 + x_19_35 + x_20_35
   + x_21_35 + x_22_35 + x_24_35 + x_26_35 + x_27_35 + x_29_35 + x_30_35
   + x_31_35 + x_32_35 + x_34_35 + 2 x_35_23 + x_35_36 + x_35_37 + x_35_40
   + x_35_42 + x_35_44 + x_35_45 + x_35_46 + x_35_47 + x_35_48 + x_35_49
   = 0
 c_2_36: - 2 y_36 + x_0_36 + x_2_36 + x_3_36 + x_5_36 + x_6_36 + x_7_36
   + x_8_36 + x_10_36 + x_11_36 + x_14_36 + x_15_36 + x_18_36 + x_19_36
   + x_20_36 + x_21_36 + x_22_36 + x_24_36 + x_26_36 + x_27_36 + x_28_36
   + x_29_36 + x_30_36 + x_33_36 + x_34_36 + x_35_36 + x_36_39 + x_36_41
   + x_36_43 + x_36_44 + x_36_45 + x_36_46 + x_36_47 + x_36_49 = 0
 c_2_37: - 2 y_37 + x_0_37 + x_1_37 + x_2_37 + x_3_37 + x_6_37 + x_7_37
   + x_8_37 + x_9_37 + x_11_37 + x_12_37 + x_13_37 + x_14_37 + x_15_37
   + x_17_37 + x_18_37 + x_19_37 + x_20_37 + x_21_37 + x_22_37 + x_24_37
   + x_25_37 + x_27_37 + x_30_37 + x_31_37 + x_34_37 + x_35_37 + x_37_38
   + x_37_39 + x_37_41 + x_37_42 + x_37_43 + x_37_44 + x_37_46 + x_37_47
   + x_37_49 = 0
 c_2_38: - 2 y_38 + x_0_38 + x_5_38 + x_6_38 + x_7_38 + x_9_38 + x_10_38
   + x_11_38 + x_12_38 + x_13_38 + x_14_38 + x_16_38 + x_17_38 + x_18_38
   + x_19_38 + x_20_38 + x_22_38 + x_23_38 + x_24_38 + x_25_38 + x_26_38
   + x_27_38 + x_28_38 + x_29_38 + x_30_38 + x_32_38 + x_37_38 + x_38_40
   + x_38_41 + x_38_44 + x_38_45 + x_38_46 + x_38_47 + x_38_48 + x_38_49
   = 0
 c_2_39: - 2 y_39 + x_1_39 + x_3_39 + x_4_39 + x_5_39 + x_6_39 + x_7_39
   + x_9_39 + x_10_39 + x_11_39 + x_14_39 + x_15_39 + x_18_39 + x_19_39
   + x_20_39 + x_21_39 + x_23_39 + x_24_39 + x_25_39 + x_26_39 + x_28_39
   + x_29_39 + x_30_39 + x_31_39 + x_32_39 + x_36_39 + x_37_39 + x_39_40
   + x_39_45 + x_39_47 + x_39_48 + x_39_49 = 0
 c_2_40: - 2 y_40 + x_0_40 + x_1_40 + x_2_40 + x_3_40 + x_5_40 + x_6_40
   + x_7_40 + x_8_40 + x_9_40 + x_10_40 + x_11_40 + x_12_40 + x_13_40
   + x_14_40 + x_15_40 + x_16_40 + x_17_40 + x_19_40 + x_20_40 + x_21_40
   + x_24_40 + x_25_40 + x_26_40 + x_28_40 + x_29_40 + x_31_40 + x_33_40
   + x_34_40 + x_35_40 + x_38_40 + x_39_40 + x_40_41 + x_40_42 + x_40_43
   + x_40_45 + x_40_47 + x_40_48 + x_40_49 = 0
 c_2_41: - 2 y_41 + x_0_41 + x_1_41 + x_2_41 + x_5_41 + x_6_41 + x_7_41
   + x_8_41 + x_10_41 + x_11_41 + x_17_41 + x_18_41 + x_19_41 + x_20_41
   + x_21_41 + x_23_41 + x_24_41 + x_25_41 + x_26_41 + x_27_41 + x_28_41
   + x_30_41 + x_32_41 + x_36_41 + x_37_41 + x_38_41 + x_40_41 + x_41_45
   + x_41_46 + x_41_48 = 0
 c_2_42: - 2 y_42 + x_0_42 + x_1_42 + x_2_42 + x_3_42 + x_4_42 + x_9_42
   + x_10_42 + x_11_42 + x_12_42 + x_13_42 + x_14_42 + x_16_42 + x_19_42
   + x_20_42 + x_21_42 + x_22_42 + x_23_42 + x_25_42 + x_26_42 + x_27_42
   + x_28_42 + x_30_42 + x_32_42 + x_33_42 + x_35_42 + x_37_42 + x_40_42
   + x_42_43 + x_42_44 + x_42_46 + x_42_47 + x_42_48 + x_42_49 = 0
 c_2_43: - 2 y_43 + x_1_43 + x_2_43 + x_3_43 + x_4_43 + x_5_43 + x_6_43
   + x_7_43 + x_8_43 + x_9_43 + x_10_43 + x_11_43 + x_12_43 + x_14_43
   + x_15_43 + x_16_43 + x_17_43 + x_18_43 + x_19_43 + x_21_43 + x_22_43
   + x_24_43 + x_26_43 + x_27_43 + x_28_43 + x_29_43 + x_30_43 + x_31_43
   + x_33_43 + x_34_43 + x_36_43 + x_37_43 + x_40_43 + x_42_43 + x_43_44
   + x_43_45 + x_43_46 + x_43_47 + x_43_48 = 0
 c_2_44: - 2 y_44 + x_4_44 + x_5_44 + x_8_44 + x_9_44 + x_11_44 + x_12_44
   + x_14_44 + x_17_44 + x_18_44 + x_19_44 + x_20_44 + x_21_44 + x_24_44
   + x_25_44 + x_26_44 + x_27_44 + x_28_44 + x_31_44 + x_32_44 + x_35_44
   + x_36_44 + x_37_44 + x_38_44 + x_42_44 + x_43_44 + x_44_48 + x_44_49
   = 0
 c_2_45: - 2 y_45 + x_0_45 + x_1_45 + x_2_45 + x_3_45 + x_4_45 + x_5_45
   + x_6_45 + x_7_45 + x_8_45 + x_9_45 + x_10_45 + x_12_45 + x_13_45
   + x_14_45 + x_16_45 + x_18_45 + x_19_45 + x_20_45 + x_21_45 + x_22_45
   + x_23_45 + x_24_45 + x_25_45 + x_26_45 + x_27_45 + x_28_45 + x_29_45
   + x_30_45 + x_32_45 + x_33_45 + x_35_45 + x_36_45 + x_38_45 + x_39_45
   + x_40_45 + x_41_45 + x_43_45 + x_45_47 + x_45_48 + x_45_49 = 0
 c_2_46: - 2 y_46 + x_1_46 + x_2_46 + x_3_46 + x_5_46 + x_6_46 + x_9_46
   + x_11_46 + x_14_46 + x_15_46 + x_16_46 + x_17_46 + x_18_46 + x_19_46
   + x_20_46 + x_21_46 + x_22_46 + x_23_46 + x_24_46 + x_25_46 + x_26_46
   + x_27_46 + x_28_46 + x_29_46 + x_31_46 + x_34_46 + x_35_46 + x_36_46
   + x_37_46 + x_38_46 + x_41_46 + x_42_46 + x_43_46 + x_46_48 + x_46_49
   = 0
 c_2_47: - 2 y_47 + x_0_47 + x_2_47 + x_3_47 + x_4_47 + x_5_47 + x_7_47
   + x_8_47 + x_13_47 + x_15_47 + x_19_47 + x_20_47 + x_21_47 + x_22_47
   + x_23_47 + x_24_47 + x_25_47 + x_26_47 + x_27_47 + x_29_47 + x_30_47
   + x_32_47 + x_33_47 + x_34_47 + x_35_47 + x_36_47 + x_37_47 + x_38_47
   + x_39_47 + x_40_47 + x_42_47 + x_43_47 + x_45_47 + x_47_48 + x_47_49
   = 0
 c_2_48: - 2 y_48 + x_0_48 + x_2_48 + x_3_48 + x_4_48 + x_5_48 + x_7_48
   + x_9_48 + x_10_48 + x_12_48 + x_16_48 + x_17_48 + x_18_48 + x_19_48
   + x_20_48 + x_23_48 + x_24_48 + x_25_48 + x_26_48 + x_27_48 + x_28_48
   + x_29_48 + x_30_48 + x_31_48 + x_32_48 + x_33_48 + x_34_48 + x_35_48
   + x_38_48 + x_39_48 + x_40_48 + x_41_48 + x_42_48 + x_43_48 + x_44_48
   + x_45_48 + x_46_48 + x_47_48 = 0
 c_2_49: - 2 y_49 + x_0_49 + x_1_49 + x_2_49 + x_3_49 + x_4_49 + x_7_49
   + x_8_49 + x_9_49 + x_10_49 + x_11_49 + x_13_49 + x_14_49 + x_15_49
   + x_16_49 + x_17_49 + x_18_49 + x_20_49 + x_21_49 + x_22_49 + x_23_49
   + x_24_49 + x_25_49 + x_26_49 + x_28_49 + x_30_49 + x_31_49 + x_32_49
   + x_33_49 + x_34_49 + x_35_49 + x_36_49 + x_37_49 + x_38_49 + x_39_49
   + x_40_49 + x_42_49 + x_44_49 + x_45_49 + x_46_49 + x_47_49 = 0
Bounds
 Constant = 1
Binaries
 y_0 y_1 y_2 y_3 y_4 y_5 y_6 y_7 y_8 y_9 y_10 y_11 y_12 y_13 y_14 y_15 y_16
 y_17 y_18 y_19 y_20 y_21 y_22 y_23 y_24 y_25 y_26 y_27 y_28 y_29 y_30 y_31
 y_32 y_33 y_34 y_35 y_36 y_37 y_38 y_39 y_40 y_41 y_42 y_43 y_44 y_45 y_46
 y_47 y_48 y_49 x_0_1 x_0_2 x_0_3 x_0_4 x_0_5 x_0_6 x_0_8 x_0_9 x_0_10
 x_0_11 x_0_12 x_0_13 x_0_14 x_0_16 x_0_18 x_0_19 x_0_20 x_0_21 x_0_22
 x_0_23 x_0_25 x_0_26 x_0_27 x_0_28 x_0_30 x_0_31 x_0_33 x_0_34 x_0_35
 x_0_36 x_0_37 x_0_38 x_0_40 x_0_41 x_0_42 x_0_45 x_0_47 x_0_48 x_0_49
 x_1_2 x_1_3 x_1_4 x_1_7 x_1_8 x_1_11 x_1_13 x_1_14 x_1_15 x_1_17 x_1_18
 x_1_20 x_1_22 x_1_23 x_1_24 x_1_25 x_1_26 x_1_27 x_1_28 x_1_29 x_1_30
 x_1_33 x_1_34 x_1_37 x_1_39 x_1_40 x_1_41 x_1_42 x_1_43 x_1_45 x_1_46
 x_1_49 x_2_3 x_2_4 x_2_5 x_2_6 x_2_7 x_2_8 x_2_11 x_2_13 x_2_15 x_2_16
 x_2_17 x_2_18 x_2_19 x_2_20 x_2_21 x_2_22 x_2_25 x_2_28 x_2_29 x_2_32
 x_2_33 x_2_34 x_2_36 x_2_37 x_2_40 x_2_41 x_2_42 x_2_43 x_2_45 x_2_46
 x_2_47 x_2_48 x_2_49 x_3_4 x_3_5 x_3_8 x_3_9 x_3_10 x_3_11 x_3_13 x_3_14
 x_3_15 x_3_16 x_3_17 x_3_18 x_3_19 x_3_22 x_3_24 x_3_25 x_3_26 x_3_29
 x_3_30 x_3_32 x_3_35 x_3_36 x_3_37 x_3_39 x_3_40 x_3_42 x_3_43 x_3_45
 x_3_46 x_3_47 x_3_48 x_3_49 x_4_8 x_4_9 x_4_10 x_4_11 x_4_13 x_4_14 x_4_15
 x_4_16 x_4_19 x_4_20 x_4_21 x_4_22 x_4_23 x_4_24 x_4_25 x_4_28 x_4_30
 x_4_31 x_4_32 x_4_35 x_4_39 x_4_42 x_4_43 x_4_44 x_4_45 x_4_47 x_4_48
 x_4_49 x_5_6 x_5_7 x_5_8 x_5_10 x_5_12 x_5_13 x_5_15 x_5_16 x_5_17 x_5_19
 x_5_20 x_5_21 x_5_23 x_5_26 x_5_27 x_5_28 x_5_29 x_5_30 x_5_31 x_5_32
 x_5_33 x_5_35 x_5_36 x_5_38 x_5_39 x_5_40 x_5_41 x_5_43 x_5_44 x_5_45
 x_5_46 x_5_47 x_5_48 x_6_7 x_6_8 x_6_9 x_6_10 x_6_11 x_6_12 x_6_13 x_6_14
 x_6_17 x_6_18 x_6_24 x_6_26 x_6_27 x_6_30 x_6_33 x_6_34 x_6_36 x_6_37
 x_6_38 x_6_39 x_6_40 x_6_41 x_6_43 x_6_45 x_6_46 x_7_8 x_7_9 x_7_12 x_7_13
 x_7_14 x_7_15 x_7_16 x_7_17 x_7_18 x_7_19 x_7_20 x_7_22 x_7_26 x_7_27
 x_7_28 x_7_30 x_7_32 x_7_35 x_7_36 x_7_37 x_7_38 x_7_39 x_7_40 x_7_41
 x_7_43 x_7_45 x_7_47 x_7_48 x_7_49 x_8_9 x_8_10 x_8_11 x_8_12 x_8_13
 x_8_14 x_8_15 x_8_16 x_8_17 x_8_18 x_8_19 x_8_22 x_8_25 x_8_27 x_8_28
 x_8_30 x_8_32 x_8_35 x_8_36 x_8_37 x_8_40 x_8_41 x_8_43 x_8_44 x_8_45
 x_8_47 x_8_49 x_9_11 x_9_14 x_9_17 x_9_18 x_9_19 x_9_20 x_9_21 x_9_22
 x_9_23 x_9_24 x_9_26 x_9_28 x_9_29 x_9_30 x_9_31 x_9_32 x_9_33 x_9_34
 x_9_35 x_9_37 x_9_38 x_9_39 x_9_40 x_9_42 x_9_43 x_9_44 x_9_45 x_9_46
 x_9_48 x_9_49 x_10_12 x_10_13 x_10_14 x_10_17 x_10_19 x_10_21 x_10_22
 x_10_25 x_10_26 x_10_27 x_10_28 x_10_29 x_10_31 x_10_32 x_10_34 x_10_36
 x_10_38 x_10_39 x_10_40 x_10_41 x_10_42 x_10_43 x_10_45 x_10_48 x_10_49
 x_11_14 x_11_16 x_11_17 x_11_18 x_11_19 x_11_20 x_11_21 x_11_22 x_11_24
 x_11_27 x_11_28 x_11_30 x_11_35 x_11_36 x_11_37 x_11_38 x_11_39 x_11_40
 x_11_41 x_11_42 x_11_43 x_11_44 x_11_46 x_11_49 x_12_13 x_12_14 x_12_15
 x_12_17 x_12_18 x_12_19 x_12_20 x_12_21 x_12_22 x_12_24 x_12_25 x_12_26
 x_12_29 x_12_30 x_12_31 x_12_32 x_12_33 x_12_34 x_12_37 x_12_38 x_12_40
 x_12_42 x_12_43 x_12_44 x_12_45 x_12_48 x_13_14 x_13_15 x_13_16 x_13_18
 x_13_23 x_13_24 x_13_25 x_13_26 x_13_27 x_13_28 x_13_29 x_13_30 x_13_31
 x_13_32 x_13_33 x_13_34 x_13_35 x_13_37 x_13_38 x_13_40 x_13_42 x_13_45
 x_13_47 x_13_49 x_14_15 x_14_16 x_14_17 x_14_19 x_14_20 x_14_21 x_14_22
 x_14_24 x_14_27 x_14_28 x_14_31 x_14_33 x_14_36 x_14_37 x_14_38 x_14_39
 x_14_40 x_14_42 x_14_43 x_14_44 x_14_45 x_14_46 x_14_49 x_15_17 x_15_19
 x_15_20 x_15_22 x_15_23 x_15_27 x_15_28 x_15_29 x_15_30 x_15_33 x_15_34
 x_15_36 x_15_37 x_15_39 x_15_40 x_15_43 x_15_46 x_15_47 x_15_49 x_16_17
 x_16_18 x_16_20 x_16_21 x_16_22 x_16_25 x_16_27 x_16_28 x_16_29 x_16_30
 x_16_31 x_16_33 x_16_34 x_16_35 x_16_38 x_16_40 x_16_42 x_16_43 x_16_45
 x_16_46 x_16_48 x_16_49 x_17_18 x_17_19 x_17_22 x_17_23 x_17_24 x_17_25
 x_17_27 x_17_28 x_17_29 x_17_30 x_17_31 x_17_32 x_17_34 x_17_35 x_17_37
 x_17_38 x_17_40 x_17_41 x_17_43 x_17_44 x_17_46 x_17_48 x_17_49 x_18_19
 x_18_22 x_18_23 x_18_24 x_18_25 x_18_26 x_18_27 x_18_28 x_18_30 x_18_31
 x_18_32 x_18_33 x_18_36 x_18_37 x_18_38 x_18_39 x_18_41 x_18_43 x_18_44
 x_18_45 x_18_46 x_18_48 x_18_49 x_19_22 x_19_23 x_19_24 x_19_25 x_19_26
 x_19_27 x_19_28 x_19_29 x_19_31 x_19_33 x_19_34 x_19_35 x_19_36 x_19_37
 x_19_38 x_19_39 x_19_40 x_19_41 x_19_42 x_19_43 x_19_44 x_19_45 x_19_46
 x_19_47 x_19_48 x_20_24 x_20_25 x_20_26 x_20_27 x_20_28 x_20_29 x_20_30
 x_20_32 x_20_34 x_20_35 x_20_36 x_20_37 x_20_38 x_20_39 x_20_40 x_20_41
 x_20_42 x_20_44 x_20_45 x_20_46 x_20_47 x_20_48 x_20_49 x_21_23 x_21_25
 x_21_26 x_21_27 x_21_29 x_21_30 x_21_31 x_21_32 x_21_34 x_21_35 x_21_36
 x_21_37 x_21_39 x_21_40 x_21_41 x_21_42 x_21_43 x_21_44 x_21_45 x_21_46
 x_21_47 x_21_49 x_22_24 x_22_25 x_22_26 x_22_27 x_22_28 x_22_32 x_22_33
 x_22_34 x_22_35 x_22_36 x_22_37 x_22_38 x_22_42 x_22_43 x_22_45 x_22_46
 x_22_47 x_22_49 x_23_24 x_23_25 x_23_26 x_23_28 x_23_29 x_23_30 x_23_32
 x_23_33 x_23_34 x_23_35 x_23_38 x_23_39 x_23_41 x_23_42 x_23_45 x_23_46
 x_23_47 x_23_48 x_23_49 x_24_25 x_24_26 x_24_27 x_24_30 x_24_31 x_24_32
 x_24_33 x_24_34 x_24_35 x_24_36 x_24_37 x_24_38 x_24_39 x_24_40 x_24_41
 x_24_43 x_24_44 x_24_45 x_24_46 x_24_47 x_24_48 x_24_49 x_25_26 x_25_27
 x_25_28 x_25_30 x_25_32 x_25_33 x_25_37 x_25_38 x_25_39 x_25_40 x_25_41
 x_25_42 x_25_44 x_25_45 x_25_46 x_25_47 x_25_48 x_25_49 x_26_27 x_26_28
 x_26_29 x_26_30 x_26_31 x_26_34 x_26_35 x_26_36 x_26_38 x_26_39 x_26_40
 x_26_41 x_26_42 x_26_43 x_26_44 x_26_45 x_26_46 x_26_47 x_26_48 x_26_49
 x_27_30 x_27_32 x_27_33 x_27_34 x_27_35 x_27_36 x_27_37 x_27_38 x_27_41
 x_27_42 x_27_43 x_27_44 x_27_45 x_27_46 x_27_47 x_27_48 x_28_29 x_28_30
 x_28_31 x_28_32 x_28_33 x_28_34 x_28_36 x_28_38 x_28_39 x_28_40 x_28_41
 x_28_42 x_28_43 x_28_44 x_28_45 x_28_46 x_28_48 x_28_49 x_29_30 x_29_31
 x_29_32 x_29_33 x_29_35 x_29_36 x_29_38 x_29_39 x_29_40 x_29_43 x_29_45
 x_29_46 x_29_47 x_29_48 x_30_31 x_30_32 x_30_33 x_30_34 x_30_35 x_30_36
 x_30_37 x_30_38 x_30_39 x_30_41 x_30_42 x_30_43 x_30_45 x_30_47 x_30_48
 x_30_49 x_31_32 x_31_33 x_31_35 x_31_37 x_31_39 x_31_40 x_31_43 x_31_44
 x_31_46 x_31_48 x_31_49 x_32_35 x_32_38 x_32_39 x_32_41 x_32_42 x_32_44
 x_32_45 x_32_47 x_32_48 x_32_49 x_33_34 x_33_36 x_33_40 x_33_42 x_33_43
 x_33_45 x_33_47 x_33_48 x_33_49 x_34_35 x_34_36 x_34_37 x_34_40 x_34_43
 x_34_46 x_34_47 x_34_48 x_34_49 x_35_23 x_35_36 x_35_37 x_35_40 x_35_42
 x_35_44 x_35_45 x_35_46 x_35_47 x_35_48 x_35_49 x_36_39 x_36_41 x_36_43
 x_36_44 x_36_45 x_36_46 x_36_47 x_36_49 x_37_38 x_37_39 x_37_41 x_37_42
 x_37_43 x_37_44 x_37_46 x_37_47 x_37_49 x_38_40 x_38_41 x_38_44 x_38_45
 x_38_46 x_38_47 x_38_48 x_38_49 x_39_40 x_39_45 x_39_47 x_39_48 x_39_49
 x_40_41 x_40_42 x_40_43 x_40_45 x_40_47 x_40_48 x_40_49 x_41_45 x_41_46
 x_41_48 x_42_43 x_42_44 x_42_46 x_42_47 x_42_48 x_42_49 x_43_44 x_43_45
 x_43_46 x_43_47 x_43_48 x_44_48 x_44_49 x_45_47 x_45_48 x_45_49 x_46_48
 x_46_49 x_47_48 x_47_49
End
